node 0 w: 6.16, h: 12.95
node 1 w: 4.9, h: 12.95
node 2 w: 8.2026-06-13 10:28:28 - INFO - Set parameter WLSAccessID
2026-06-13 10:28:28 - INFO - Set parameter WLSSecret
2026-06-13 10:28:28 - INFO - Set parameter LicenseID to value 2756663
2026-06-13 10:28:28 - INFO - Academic license 2756663 - for non-commercial use only - registered to hu___@sjtu.edu.cn
2026-06-13 10:28:28 - INFO - Set parameter TimeLimit to value 300
2026-06-13 10:28:28 - INFO - Set parameter MIPGap to value 0
2026-06-13 10:28:28 - INFO - Set parameter MIPFocus to value 3
2026-06-13 10:28:28 - INFO - Set parameter Heuristics to value 0.5
2026-06-13 10:28:28 - INFO - Set parameter LogToConsole to value 1
2026-06-13 10:28:28 - INFO - Gurobi Optimizer version 13.0.1 build v13.0.1rc0 (linux64 - "Ubuntu 20.04.6 LTS")
2026-06-13 10:28:28 - INFO - 
2026-06-13 10:28:28 - INFO - CPU model: AMD Ryzen 9 9950X3D 16-Core Processor, instruction set [SSE2|AVX|AVX2|AVX512]
2026-06-13 10:28:28 - INFO - Thread count: 14 physical cores, 28 logical processors, using up to 28 threads
2026-06-13 10:28:28 - INFO - 
2026-06-13 10:28:28 - INFO - Non-default parameters:
2026-06-13 10:28:28 - INFO - TimeLimit  300
2026-06-13 10:28:28 - INFO - MIPGap  0
2026-06-13 10:28:28 - INFO - Heuristics  0.5
2026-06-13 10:28:28 - INFO - MIPFocus  3
2026-06-13 10:28:28 - INFO - 
2026-06-13 10:28:28 - INFO - Academic license 2756663 - for non-commercial use only - registered to hu___@sjtu.edu.cn
2026-06-13 10:28:28 - INFO - Optimize a model with 1440 rows, 658 columns and 4929 nonzeros (Min)
2026-06-13 10:28:28 - INFO - Model fingerprint: 0x45669044
2026-06-13 10:28:28 - INFO - Model has 4 linear objective coefficients
2026-06-13 10:28:28 - INFO - Variable types: 259 continuous, 399 integer (399 binary)
2026-06-13 10:28:28 - INFO - Coefficient statistics:
2026-06-13 10:28:28 - INFO -   Matrix range     [3e-01, 4e+03]
2026-06-13 10:28:28 - INFO -   Objective range  [6e-06, 8e-02]
2026-06-13 10:28:28 - INFO -   Bounds range     [9e-01, 2e+07]
2026-06-13 10:28:28 - INFO -   RHS range        [9e-01, 3e+02]
2026-06-13 10:28:28 - INFO - 
2026-06-13 10:28:28 - INFO - Presolve removed 120 rows and 104 columns
2026-06-13 10:28:28 - INFO - Presolve time: 0.01s
2026-06-13 10:28:28 - INFO - Presolved: 1320 rows, 554 columns, 4672 nonzeros
2026-06-13 10:28:28 - INFO - Variable types: 181 continuous, 373 integer (373 binary)
2026-06-13 10:28:28 - INFO - Root relaxation presolve removed 132 rows and 28 columns
2026-06-13 10:28:28 - INFO - Root relaxation presolved: 1188 rows, 550 columns, 4380 nonzeros
2026-06-13 10:28:28 - INFO - 
2026-06-13 10:28:28 - INFO - 
2026-06-13 10:28:28 - INFO - Root relaxation: objective -5.397664e+00, 277 iterations, 0.00 seconds (0.01 work units)
2026-06-13 10:28:28 - INFO - 
2026-06-13 10:28:28 - INFO -     Nodes    |    Current Node    |     Objective Bounds      |     Work
2026-06-13 10:28:28 - INFO -  Expl Unexpl |  Obj  Depth IntInf | Incumbent    BestBd   Gap | It/Node Time
2026-06-13 10:28:28 - INFO - 
2026-06-13 10:28:28 - INFO -      0     0   -5.39766    0  151          -   -5.39766      -     -    0s
2026-06-13 10:28:28 - INFO -      0     0    2.29203    0  154          -    2.29203      -     -    0s
2026-06-13 10:28:28 - INFO -      0     0    2.29203    0  149          -    2.29203      -     -    0s
2026-06-13 10:28:28 - INFO -      0     0    3.51655    0  149          -    3.51655      -     -    0s
2026-06-13 10:28:28 - INFO -      0     0    3.67247    0  162          -    3.67247      -     -    0s
2026-06-13 10:28:28 - INFO -      0     0    3.67247    0  138          -    3.67247      -     -    0s
2026-06-13 10:28:28 - INFO -      0     0    3.96523    0  144          -    3.96523      -     -    0s
2026-06-13 10:28:28 - INFO -      0     0    3.96523    0  162          -    3.96523      -     -    0s
2026-06-13 10:28:28 - INFO -      0     0    4.01011    0  162          -    4.01011      -     -    0s
2026-06-13 10:28:28 - INFO -      0     0    4.01011    0  156          -    4.01011      -     -    0s
2026-06-13 10:28:29 - INFO -      0     0    4.01011    0  123          -    4.01011      -     -    0s
2026-06-13 10:28:29 - INFO -      0     0    4.29382    0  128          -    4.29382      -     -    0s
2026-06-13 10:28:29 - INFO -      0     0    4.29382    0  130          -    4.29382      -     -    0s
2026-06-13 10:28:29 - INFO -      0     0    4.29382    0  130          -    4.29382      -     -    0s
2026-06-13 10:28:29 - INFO -      0     0    4.35219    0  152          -    4.35219      -     -    0s
2026-06-13 10:28:29 - INFO -      0     0    4.35219    0  145          -    4.35219      -     -    0s
2026-06-13 10:28:29 - INFO -      0     0    4.35219    0  124          -    4.35219      -     -    0s
2026-06-13 10:28:29 - INFO -      0     0    4.45699    0  124          -    4.45699      -     -    0s
2026-06-13 10:28:29 - INFO -      0     0    4.45699    0  120          -    4.45699      -     -    1s
2026-06-13 10:28:30 - INFO -      0     2    4.45699    0  118          -    4.45699      -     -    2s
2026-06-13 10:28:33 - INFO -   2001  1907    4.90893   10  144          -    4.82757      -  55.7    5s
2026-06-13 10:28:38 - INFO -   8894  4180    7.54370   26   81          -    6.77683      -  70.5   10s
2026-06-13 10:28:43 - INFO -  19011  5982    8.24332   28   68          -    7.38785      -  59.3   15s
2026-06-13 10:28:48 - INFO -  39085  4227 infeasible   28               -    8.79824      -  50.6   20s
2026-06-13 10:28:52 - INFO - 
2026-06-13 10:28:52 - INFO - Cutting planes:
2026-06-13 10:28:52 - INFO -   Learned: 25
2026-06-13 10:28:52 - INFO -   Gomory: 121
2026-06-13 10:28:52 - INFO -   Lift-and-project: 63
2026-06-13 10:28:52 - INFO -   MIR: 56
2026-06-13 10:28:52 - INFO -   Mixing: 1
2026-06-13 10:28:52 - INFO -   Flow cover: 258
2026-06-13 10:28:52 - INFO -   GUB cover: 1
2026-06-13 10:28:52 - INFO -   Inf proof: 34
2026-06-13 10:28:52 - INFO -   RLT: 2
2026-06-13 10:28:52 - INFO - 
2026-06-13 10:28:52 - INFO - Explored 50905 nodes (2322672 simplex iterations) in 23.68 seconds (36.75 work units)
2026-06-13 10:28:52 - INFO - Thread count was 28 (of 28 available processors)
2026-06-13 10:28:52 - INFO - 
2026-06-13 10:28:52 - INFO - Solution count 0
2026-06-13 10:28:52 - INFO - 
2026-06-13 10:28:52 - INFO - Model is infeasible or unbounded
2026-06-13 10:28:52 - INFO - Best objective -, best bound -, gap -
2026-06-13 10:28:52 - INFO - Set parameter TimeLimit to value 300
2026-06-13 10:28:52 - INFO - Set parameter MIPGap to value 0.3
2026-06-13 10:28:52 - INFO - Set parameter MIPFocus to value 3
2026-06-13 10:28:52 - INFO - Set parameter Heuristics to value 0.5
2026-06-13 10:28:52 - INFO - Set parameter LogToConsole to value 1
2026-06-13 10:28:52 - INFO - Gurobi Optimizer version 13.0.1 build v13.0.1rc0 (linux64 - "Ubuntu 20.04.6 LTS")
2026-06-13 10:28:52 - INFO - 
2026-06-13 10:28:52 - INFO - CPU model: AMD Ryzen 9 9950X3D 16-Core Processor, instruction set [SSE2|AVX|AVX2|AVX512]
2026-06-13 10:28:52 - INFO - Thread count: 14 physical cores, 28 logical processors, using up to 28 threads
2026-06-13 10:28:52 - INFO - 
2026-06-13 10:28:52 - INFO - Non-default parameters:
2026-06-13 10:28:52 - INFO - TimeLimit  300
2026-06-13 10:28:52 - INFO - MIPGap  0.3
2026-06-13 10:28:52 - INFO - Heuristics  0.5
2026-06-13 10:28:52 - INFO - MIPFocus  3
2026-06-13 10:28:52 - INFO - 
2026-06-13 10:28:52 - INFO - Academic license 2756663 - for non-commercial use only - registered to hu___@sjtu.edu.cn
2026-06-13 10:28:52 - INFO - Optimize a model with 1440 rows, 658 columns and 4929 nonzeros (Min)
2026-06-13 10:28:52 - INFO - Model fingerprint: 0x45669044
2026-06-13 10:28:52 - INFO - Model has 4 linear objective coefficients
2026-06-13 10:28:52 - INFO - Variable types: 259 continuous, 399 integer (399 binary)
2026-06-13 10:28:52 - INFO - Coefficient statistics:
2026-06-13 10:28:52 - INFO -   Matrix range     [3e-01, 4e+03]
2026-06-13 10:28:52 - INFO -   Objective range  [6e-06, 8e-02]
2026-06-13 10:28:52 - INFO -   Bounds range     [9e-01, 2e+07]
2026-06-13 10:28:52 - INFO -   RHS range        [9e-01, 3e+02]
2026-06-13 10:28:52 - INFO - 
2026-06-13 10:28:52 - INFO - Presolved: 1320 rows, 554 columns, 4672 nonzeros
2026-06-13 10:28:52 - INFO - 
2026-06-13 10:28:52 - INFO - Continuing optimization...
2026-06-13 10:28:52 - INFO - 
2026-06-13 10:28:52 - INFO - 
2026-06-13 10:28:52 - INFO - Cutting planes:
2026-06-13 10:28:52 - INFO -   Learned: 25
2026-06-13 10:28:52 - INFO -   Gomory: 121
2026-06-13 10:28:52 - INFO -   Lift-and-project: 63
2026-06-13 10:28:52 - INFO -   MIR: 56
2026-06-13 10:28:52 - INFO -   Mixing: 1
2026-06-13 10:28:52 - INFO -   Flow cover: 258
2026-06-13 10:28:52 - INFO -   GUB cover: 1
2026-06-13 10:28:52 - INFO -   Inf proof: 34
2026-06-13 10:28:52 - INFO -   RLT: 2
2026-06-13 10:28:52 - INFO - 
2026-06-13 10:28:52 - INFO - Explored 50905 nodes (2322672 simplex iterations) in 23.69 seconds (36.76 work units)
2026-06-13 10:28:52 - INFO - Most recent optimization runtime was 0.01 seconds (0.00 work units)
2026-06-13 10:28:52 - INFO - Thread count was 28 (of 28 available processors)
2026-06-13 10:28:52 - INFO - 
2026-06-13 10:28:52 - INFO - Solution count 0
2026-06-13 10:28:52 - INFO - 
2026-06-13 10:28:52 - INFO - Model is infeasible or unbounded
2026-06-13 10:28:52 - INFO - Best objective -, best bound -, gap -
2026-06-13 10:28:52 - INFO - Set parameter TimeLimit to value 3600
2026-06-13 10:28:52 - INFO - Set parameter MIPGap to value 0.8
2026-06-13 10:28:52 - INFO - Set parameter MIPFocus to value 3
2026-06-13 10:28:52 - INFO - Set parameter Heuristics to value 0.5
2026-06-13 10:28:52 - INFO - Set parameter LogToConsole to value 1
2026-06-13 10:28:52 - INFO - Gurobi Optimizer version 13.0.1 build v13.0.1rc0 (linux64 - "Ubuntu 20.04.6 LTS")
2026-06-13 10:28:52 - INFO - 
2026-06-13 10:28:52 - INFO - CPU model: AMD Ryzen 9 9950X3D 16-Core Processor, instruction set [SSE2|AVX|AVX2|AVX512]
2026-06-13 10:28:52 - INFO - Thread count: 14 physical cores, 28 logical processors, using up to 28 threads
2026-06-13 10:28:52 - INFO - 
2026-06-13 10:28:52 - INFO - Non-default parameters:
2026-06-13 10:28:52 - INFO - TimeLimit  3600
2026-06-13 10:28:52 - INFO - MIPGap  0.8
2026-06-13 10:28:52 - INFO - Heuristics  0.5
2026-06-13 10:28:52 - INFO - MIPFocus  3
2026-06-13 10:28:52 - INFO - 
2026-06-13 10:28:52 - INFO - Academic license 2756663 - for non-commercial use only - registered to hu___@sjtu.edu.cn
2026-06-13 10:28:52 - INFO - Optimize a model with 1440 rows, 658 columns and 4929 nonzeros (Min)
2026-06-13 10:28:52 - INFO - Model fingerprint: 0x45669044
2026-06-13 10:28:52 - INFO - Model has 4 linear objective coefficients
2026-06-13 10:28:52 - INFO - Variable types: 259 continuous, 399 integer (399 binary)
2026-06-13 10:28:52 - INFO - Coefficient statistics:
2026-06-13 10:28:52 - INFO -   Matrix range     [3e-01, 4e+03]
2026-06-13 10:28:52 - INFO -   Objective range  [6e-06, 8e-02]
2026-06-13 10:28:52 - INFO -   Bounds range     [9e-01, 2e+07]
2026-06-13 10:28:52 - INFO -   RHS range        [9e-01, 3e+02]
2026-06-13 10:28:52 - INFO - 
2026-06-13 10:28:52 - INFO - Presolved: 1320 rows, 554 columns, 4672 nonzeros
2026-06-13 10:28:52 - INFO - 
2026-06-13 10:28:52 - INFO - Continuing optimization...
2026-06-13 10:28:52 - INFO - 
2026-06-13 10:28:52 - INFO - 
2026-06-13 10:28:52 - INFO - Cutting planes:
2026-06-13 10:28:52 - INFO -   Learned: 25
2026-06-13 10:28:52 - INFO -   Gomory: 121
2026-06-13 10:28:52 - INFO -   Lift-and-project: 63
2026-06-13 10:28:52 - INFO -   MIR: 56
2026-06-13 10:28:52 - INFO -   Mixing: 1
2026-06-13 10:28:52 - INFO -   Flow cover: 258
2026-06-13 10:28:52 - INFO -   GUB cover: 1
2026-06-13 10:28:52 - INFO -   Inf proof: 34
2026-06-13 10:28:52 - INFO -   RLT: 2
2026-06-13 10:28:52 - INFO - 
2026-06-13 10:28:52 - INFO - Explored 50905 nodes (2322672 simplex iterations) in 23.70 seconds (36.76 work units)
2026-06-13 10:28:52 - INFO - Most recent optimization runtime was 0.00 seconds (0.00 work units)
2026-06-13 10:28:52 - INFO - Thread count was 28 (of 28 available processors)
2026-06-13 10:28:52 - INFO - 
2026-06-13 10:28:52 - INFO - Solution count 0
2026-06-13 10:28:52 - INFO - 
2026-06-13 10:28:52 - INFO - Model is infeasible or unbounded
2026-06-13 10:28:52 - INFO - Best objective -, best bound -, gap -
2026-06-13 10:28:52 - INFO - 
EMIB returned 0 solution(s) (max 1).
ailable processors)

Solution count 0

Model is infeasible or unbounded
Best objective -, best bound -, gap -
[EMIB] No feasible solution: MIPGap=0.3, status=4, time=0.01s, SolCount=0
[EMIB] Phase 2 no feasible solution, switching to phase 3 MIPGap=0.8.
Set parameter TimeLimit to value 3600
Set parameter MIPGap to value 0.8
Set parameter MIPFocus to value 3
Set parameter Heuristics to value 0.5
Set parameter LogToConsole to value 1
Gurobi Optimizer version 13.0.1 build v13.0.1rc0 (linux64 - "Ubuntu 20.04.6 LTS")

CPU model: AMD Ryzen 9 9950X3D 16-Core Processor, instruction set [SSE2|AVX|AVX2|AVX512]
Thread count: 14 physical cores, 28 logical processors, using up to 28 threads

Non-default parameters:
TimeLimit  3600
MIPGap  0.8
Heuristics  0.5
MIPFocus  3

Academic license 2756663 - for non-commercial use only - registered to hu___@sjtu.edu.cn
Optimize a model with 1440 rows, 658 columns and 4929 nonzeros (Min)
Model fingerprint: 0x45669044
Model has 4 linear objective coefficients
Variable types: 259 continuous, 399 integer (399 binary)
Coefficient statistics:
  Matrix range     [3e-01, 4e+03]
  Objective range  [6e-06, 8e-02]
  Bounds range     [9e-01, 2e+07]
  RHS range        [9e-01, 3e+02]

Presolved: 1320 rows, 554 columns, 4672 nonzeros

Continuing optimization...


Cutting planes:
  Learned: 25
  Gomory: 121
  Lift-and-project: 63
  MIR: 56
  Mixing: 1
  Flow cover: 258
  GUB cover: 1
  Inf proof: 34
  RLT: 2

Explored 50905 nodes (2322672 simplex iterations) in 23.70 seconds (36.76 work units)
Most recent optimization runtime was 0.00 seconds (0.00 work units)
Thread count was 28 (of 28 available processors)

Solution count 0

Model is infeasible or unbounded
Best objective -, best bound -, gap -
[EMIB] No feasible solution: MIPGap=0.8, status=4, time=0.00s, SolCount=0
[EMIB] Search failed, no feasible solution
  ✓ EMIB: 0 solution(s)
